
Gurobi 9.0.1 (linux64) logging started Thu Apr 30 06:03:16 2020

Gurobi Optimizer version 9.0.1 build v9.0.1rc0 (linux64)
Optimize a model with 2234 rows, 2120 columns and 20112 nonzeros
Model fingerprint: 0x456a7eab
Variable types: 0 continuous, 2120 integer (2106 binary)
Coefficient statistics:
  Matrix range     [1e+00, 7e+00]
  Objective range  [5e+00, 1e+02]
  Bounds range     [1e+00, 1e+00]
  RHS range        [1e+00, 1e+00]

User MIP start produced solution with objective 557 (0.00s)
Loaded user MIP start with objective 557

Presolve removed 1004 rows and 912 columns
Presolve time: 0.08s
Presolved: 1230 rows, 1208 columns, 11904 nonzeros
Variable types: 0 continuous, 1208 integer (1208 binary)

Root relaxation: objective 3.710549e+02, 763 iterations, 0.08 seconds

    Nodes    |    Current Node    |     Objective Bounds      |     Work
 Expl Unexpl |  Obj  Depth IntInf | Incumbent    BestBd   Gap | It/Node Time

     0     0  371.05489    0  310  557.00000  371.05489  33.4%     -    0s
     0     0  396.10584    0  319  557.00000  396.10584  28.9%     -    0s
     0     0  396.14349    0  322  557.00000  396.14349  28.9%     -    0s
     0     0  401.48469    0  309  557.00000  401.48469  27.9%     -    0s
     0     0  401.80879    0  313  557.00000  401.80879  27.9%     -    0s
     0     0  401.81876    0  316  557.00000  401.81876  27.9%     -    0s
     0     0  411.87551    0  334  557.00000  411.87551  26.1%     -    1s
     0     0  412.37161    0  340  557.00000  412.37161  26.0%     -    1s
     0     0  412.47640    0  334  557.00000  412.47640  25.9%     -    1s
     0     0  412.48180    0  333  557.00000  412.48180  25.9%     -    1s
     0     0  415.44622    0  342  557.00000  415.44622  25.4%     -    1s
     0     0  415.70534    0  331  557.00000  415.70534  25.4%     -    1s
     0     0  415.71569    0  331  557.00000  415.71569  25.4%     -    1s
     0     0  416.16137    0  329  557.00000  416.16137  25.3%     -    1s
     0     0  416.17547    0  334  557.00000  416.17547  25.3%     -    1s
     0     0  416.71851    0  330  557.00000  416.71851  25.2%     -    1s
     0     0  416.83297    0  332  557.00000  416.83297  25.2%     -    1s
     0     0  416.83646    0  333  557.00000  416.83646  25.2%     -    1s
     0     0  417.04061    0  339  557.00000  417.04061  25.1%     -    2s
     0     0  417.05121    0  340  557.00000  417.05121  25.1%     -    2s
     0     0  417.10829    0  341  557.00000  417.10829  25.1%     -    2s
     0     0  417.10829    0  341  557.00000  417.10829  25.1%     -    2s
     0     0  417.12730    0  307  557.00000  417.12730  25.1%     -    2s
     0     0  417.12730    0  304  557.00000  417.12730  25.1%     -    3s
     0     0  417.12730    0  294  557.00000  417.12730  25.1%     -    3s
     0     0  417.12730    0  303  557.00000  417.12730  25.1%     -    3s
     0     0  417.12730    0  303  557.00000  417.12730  25.1%     -    3s
     0     0  417.21716    0  307  557.00000  417.21716  25.1%     -    3s
     0     0  417.22268    0  311  557.00000  417.22268  25.1%     -    3s
     0     0  418.32945    0  328  557.00000  418.32945  24.9%     -    3s
     0     0  418.55775    0  334  557.00000  418.55775  24.9%     -    3s
     0     0  418.57205    0  333  557.00000  418.57205  24.9%     -    3s
     0     0  419.23485    0  332  557.00000  419.23485  24.7%     -    3s
     0     0  419.26429    0  331  557.00000  419.26429  24.7%     -    3s
     0     0  419.26640    0  333  557.00000  419.26640  24.7%     -    3s
     0     0  419.48372    0  340  557.00000  419.48372  24.7%     -    3s
     0     0  419.48372    0  339  557.00000  419.48372  24.7%     -    4s
     0     2  419.53818    0  339  557.00000  419.53818  24.7%     -    4s
    10    12  445.22358    5  276  557.00000  430.08082  22.8%   438    5s
   208   155  523.48438   22  172  557.00000  437.99586  21.4%   178   10s
   511   306  471.69828   18  341  557.00000  447.27948  19.7%   130   15s
   536   325  447.27948   11  266  557.00000  447.27948  19.7%   130   20s
   612   348  447.27948   11  264  557.00000  447.27948  19.7%   144   25s
   769   385  539.90890   27  148  557.00000  447.27948  19.7%   152   30s
H  830   326                     525.0000000  447.27948  14.8%   151   31s
H  884   287                     519.0000000  447.27948  13.8%   146   32s
*  890   269              21     516.0000000  447.27948  13.3%   146   32s
H 1021   222                     508.0000000  453.98921  10.6%   140   35s
* 1123   158              26     501.0000000  458.15300  8.55%   136   36s
  1317   115  480.85970   25  255  501.00000  471.32916  5.92%   129   40s

Cutting planes:
  Gomory: 1
  MIR: 12
  Flow cover: 5
  Inf proof: 3
  Zero half: 39
  RLT: 108

Explored 1651 nodes (194568 simplex iterations) in 43.77 seconds
Thread count was 1 (of 40 available processors)

Solution count 6: 501 508 516 ... 557

Optimal solution found (tolerance 1.00e-04)
Best objective 5.010000000000e+02, best bound 5.010000000000e+02, gap 0.0000%

User-callback calls 10272, time in user-callback 0.01 sec
